nNurses = 88;
nHours = 39;
minHours = 3;
maxHours = 18;
maxConsec = 10;
maxPresence = 10;
demand = [34, 32, 31, 30, 29, 32, 37, 40, 40, 38, 35, 35, 37, 32, 29, 25, 21, 19, 17, 19, 20, 17, 17, 13, 13, 17, 16, 11, 11, 16, 18, 14, 12, 14, 9, 10, 10, 9, 13];
